219 192 191 190 226 225 189 227 228 229 230 231 533 532 489 531 530 233 232 234 235 236 237 240 239 238 246 247 245 244 243 242 241 248 249 250 251 252 254 253 255 256 257 260 261 259 258 262 263 264 265 266 267 271 272 269 268 270 293 294 295 296 297 298 299 300 301 302 508 507 506 307 303 304 306 305 318 317 319 320 321 322 323 324 325 326 327 328 329 366 342 343 341 340 332 331 330 291 292 273 274 275 290 289 288 276 277 278 279 282 281 280 287 286 285 284 283 334 335 333 336 337 338 339 344 345 346 364 365 367 368 369 370 372 371 396 395 394 393 391 392 390 389 388 387 386 385 383 384 409 405 406 408 407 397 398 399 400 404 403 402 401 360 359 358 361 363 362 347 348 349 350 351 352 353 354 355 357 356 412 411 410 418 419 417 413 414 415 416 420 421 422 423 424 425 382 426 427 428 429 430 431 381 380 379 378 377 376 375 373 374 315 314 316 313 312 311 310 309 308 505 504 503 502 517 516 515 514 513 509 510 511 512 527 528 529 490 486 487 488 534 188 187 186 185 184 183 182 179 181 180 178 177 176 540 538 539 537 536 535 485 484 483 482 481 480 479 478 477 476 475 493 492 491 526 525 524 523 522 521 520 518 519 497 496 495 494 472 471 470 469 468 467 466 465 464 463 462 461 452 453 499 500 498 501 451 450 441 440 449 448 447 446 442 439 443 444 445 436 435 434 433 432 437 438 454 455 456 457 458 459 460 571 572 573 0 1 2 3 4 5 6 7 8 9 10 17 18 16 15 14 11 13 12 23 22 31 32 30 29 28 27 26 25 24 21 20 19 568 569 570 474 473 567 566 565 564 563 562 561 560 549 548 550 551 101 102 100 99 552 553 554 556 557 559 558 34 33 35 36 37 38 40 41 39 42 43 44 45 555 46 47 48 49 54 52 50 51 84 53 55 56 83 82 57 58 59 60 61 63 62 79 81 80 78 88 89 87 86 85 90 92 91 93 94 97 98 96 95 118 119 120 121 122 123 71 72 73 74 75 77 76 64 65 66 67 68 70 69 124 125 126 127 128 129 130 131 132 133 134 135 136 137 138 139 140 141 151 150 149 152 148 147 142 143 144 146 145 158 157 159 156 155 153 154 160 161 113 112 114 115 116 117 106 105 104 103 547 546 545 544 543 541 542 107 108 109 110 111 172 173 174 175 171 170 169 168 162 163 167 166 164 165 201 200 199 198 202 204 203 208 207 206 205 197 196 195 194 193 209 210 211 212 213 214 215 216 217 223 224 222 221 220 218